Sr S 
 1.0000000000000000
     3.7036493799999999    0.0000000000000000    2.1383034599999999
     1.2345494600000000    3.4918339000000000    2.1383034599999999
     0.0000000100000000    0.0000000100000000    4.2766048699999999
 Sr  S  
   1   1
Cartesian
  0.0000000000000000  0.0000000000000000  0.0000000000000000
  2.4690994250000000  1.7459169550000000  4.2766058949999994
