Na
 1.0000000000000000
    10.9920402050705501    0.0000000000000000    0.0000000000000000
    -5.4960186126026915    9.5193848807291150    0.0000000000000000
     0.0000000000000000    0.0000000000000000   12.4542352093939623
 Na 
  36
Cartesian
 -0.0000015009104055  2.1154199200936792  1.5567794011742451
  3.6640119007797782  2.1154199200936792  1.5567794011742451
  7.3280253024699613  2.1154199200936792  1.5567794011742451
 -1.8320077051113026  5.2885482136700510  1.5567794011742451
  1.8320056965788809  5.2885482136700510  1.5567794011742451
  5.4960190982690644  5.2885482136700510  1.5567794011742451
 -3.6640139093121999  8.4616765072464233  1.5567794011742451
 -0.0000005076220164  8.4616765072464233  1.5567794011742451
  3.6640128940681667  8.4616765072464233  1.5567794011742451
 -0.0000015009104055  2.1154199200936792  7.7838970058712267
  3.6640119007797782  2.1154199200936792  7.7838970058712267
  7.3280253024699613  2.1154199200936792  7.7838970058712267
 -1.8320077051113026  5.2885482136700510  7.7838970058712267
  1.8320056965788809  5.2885482136700510  7.7838970058712267
  5.4960190982690644  5.2885482136700510  7.7838970058712267
 -3.6640139093121999  8.4616765072464233  7.7838970058712267
 -0.0000005076220164  8.4616765072464233  7.7838970058712267
  3.6640128940681667  8.4616765072464233  7.7838970058712267
  1.8320086983996917  1.0577083734826929  4.6703382035227348
  5.4960221000898741  1.0577083734826929  4.6703382035227348
  9.1600355017800581  1.0577083734826929  4.6703382035227348
  0.0000024941987946  4.2308366670590640  4.6703382035227348
  3.6640158958889768  4.2308366670590640  4.6703382035227348
  7.3280292975791603  4.2308366670590640  4.6703382035227348
 -1.8320037100021027  7.4039649606354363  4.6703382035227348
  1.8320096916880795  7.4039649606354363  4.6703382035227348
  5.4960230933782634  7.4039649606354363  4.6703382035227348
  1.8320086983996917  1.0577083734826929 10.8974558082197177
  5.4960221000898741  1.0577083734826929 10.8974558082197177
  9.1600355017800581  1.0577083734826929 10.8974558082197177
  0.0000024941987946  4.2308366670590640 10.8974558082197177
  3.6640158958889768  4.2308366670590640 10.8974558082197177
  7.3280292975791603  4.2308366670590640 10.8974558082197177
 -1.8320037100021027  7.4039649606354363 10.8974558082197177
  1.8320096916880795  7.4039649606354363 10.8974558082197177
  5.4960230933782634  7.4039649606354363 10.8974558082197177
