Sr S 
 1.0000000000000000
    11.0363757713462327    0.0000000000000000    6.3718559929476415
     3.6787909304936894   10.4051942010572898    6.3718559929476415
     0.0000000297986517    0.0000000297986517   12.7437058771716956
 Sr  S  
  27  27
Cartesian
  0.0000000000000000  0.0000000000000000  0.0000000000000000
  3.6787919237820779 -0.0000000000000000  2.1239519976492138
  7.3575838475641557 -0.0000000000000000  4.2479039952984277
  1.2262636434978966  3.4683980670190966  2.1239519976492138
  4.9050555672799740  3.4683980670190970  4.2479039952984285
  8.5838474910620519  3.4683980670190966  6.3718559929476415
  2.4525272869957933  6.9367961340381932  4.2479039952984277
  6.1313192107778711  6.9367961340381941  6.3718559929476415
  9.8101111345599481  6.9367961340381941  8.4958079905968571
  0.0000000099328839  0.0000000099328839  4.2479019590572316
  3.6787919337149617  0.0000000099328839  6.3718539567064454
  7.3575838574970387  0.0000000099328839  8.4958059543556601
  1.2262636534307805  3.4683980769519809  6.3718539567064463
  4.9050555772128588  3.4683980769519809  8.4958059543556601
  8.5838475009949384  3.4683980769519804 10.6197579520048713
  2.4525272969286771  6.9367961439710779  8.4958059543556601
  6.1313192207107541  6.9367961439710779 10.6197579520048730
  9.8101111444928328  6.9367961439710770 12.7437099496540878
  0.0000000198657678  0.0000000198657678  8.4958039181144631
  3.6787919436478456  0.0000000198657678 10.6197559157636778
  7.3575838674299234  0.0000000198657678 12.7437079134128908
  1.2262636633636643  3.4683980868848647 10.6197559157636778
  4.9050555871457417  3.4683980868848643 12.7437079134128890
  8.5838475109278196  3.4683980868848647 14.8676599110621037
  2.4525273068615610  6.9367961539039618 12.7437079134128926
  6.1313192306436397  6.9367961539039609 14.8676599110621055
  9.8101111544257176  6.9367961539039618 16.9916119087113202
  2.4611880421446251  1.7341990384759898  4.2529029780432470
  6.1313197123885077  1.7341990384759898  6.3718549748270448
  9.8101116361705856  1.7341990384759898  8.4958069724762559
  3.6787914321043265  5.2025971054950872  6.3718549748270439
  7.3575833558864048  5.2025971054950881  8.4958069724762577
 11.0363752796684818  5.2025971054950881 10.6197589701254707
  4.9050550756022240  8.6709951725141821  8.4958069724762577
  8.5838469993842992  8.6709951725141821 10.6197589701254707
 12.2626389231663779  8.6709951725141821 12.7437109677746836
  2.4525277985393132  1.7341990484088736  8.4958049362350607
  6.1313197223213916  1.7341990484088736 10.6197569338842754
  9.8101116461034703  1.7341990484088736 12.7437089315334866
  3.6787914420372103  5.2025971154279720 10.6197569338842754
  7.3575833658192895  5.2025971154279711 12.7437089315334902
 11.0363752896013683  5.2025971154279711 14.8676609291827049
  4.9050550855351069  8.6709951824470668 12.7437089315334902
  8.5838470093171857  8.6709951824470668 14.8676609291827031
 12.2626389330992627  8.6709951824470686 16.9916129268319160
  2.4525278084721971  1.7341990583417572 12.7437068952922932
  6.1313197322542754  1.7341990583417572 14.8676588929415061
  9.8101116560363533  1.7341990583417575 16.9916108905907208
  3.6787914519700937  5.2025971253608549 14.8676588929415043
  7.3575833757521725  5.2025971253608558 16.9916108905907208
 11.0363752995342495  5.2025971253608558 19.1155628882399355
  4.9050550954679908  8.6709951923799498 16.9916108905907208
  8.5838470192500669  8.6709951923799498 19.1155628882399355
 12.2626389430321456  8.6709951923799480 21.2395148858891467
