K  S 
 1.0000000000000000
    13.6654158025117525   -0.0000000300996685    7.8897318210876470
     4.5551345373820027   12.8838781806436575    7.8897318210876470
     0.0000000000000000    0.0000000000000000   15.7794606021087809
 K   S  
  54  27
Cartesian
  4.5637978389210208  3.2209695376169218  7.8947310612273540
  9.1102761858106884  3.2209695276027746 10.5196416681002347
 13.6654147866479398  3.2209695175695514 13.1495522751294498
  6.0735157641007715  7.5155955978505489 10.5196416681002329
 10.6286543649380221  7.5155955878173257 13.1495522751294480
 15.1837929657752717  7.5155955777841035 15.7794628821586649
  7.5918939432281070 11.8102216580651014 13.1495522751294480
 12.1470325440653593 11.8102216480318791 15.7794628821586649
 16.7021711449026071 11.8102216379986569 18.4093734891878817
  4.5551375849734370  3.2209695376359972 13.1495512617739436
  9.1102761858106884  3.2209695276027746 15.7794618688031605
 13.6654147866479398  3.2209695175695514 18.4093724758323773
  6.0735157641007715  7.5155955978505489 15.7794618688031587
 10.6286543649380221  7.5155955878173257 18.4093724758323738
 15.1837929657752717  7.5155955777841035 21.0392830828615907
  7.5918939432281070 11.8102216580651014 18.4093724758323738
 12.1470325440653593 11.8102216480318791 21.0392830828615907
 16.7021711449026071 11.8102216379986569 23.6691936898908075
  4.5551375849734370  3.2209695376359972 18.4093714624768729
  9.1102761858106884  3.2209695276027746 21.0392820695060863
 13.6654147866479398  3.2209695175695514 23.6691926765353031
  6.0735157641007715  7.5155955978505489 21.0392820695060863
 10.6286543649380221  7.5155955878173257 23.6691926765353031
 15.1837929657752717  7.5155955777841035 26.2991032835645200
  7.5918939432281070 11.8102216580651014 23.6691926765353031
 12.1470325440653593 11.8102216480318791 26.2991032835645200
 16.7021711449026071 11.8102216379986569 28.9290138905937333
  1.5183791949911463  1.0736565125453326  2.6299103536903390
  6.0735177958283977  1.0736565025121096  5.2598209607195541
 10.6286563966656455  1.0736564924788869  7.8897315677487700
  3.0367573741184803  5.3682825727598846  5.2598209607195541
  7.5918959749557313  5.3682825627266615  7.8897315677487709
 12.1470345757929810  5.3682825526934383 10.5196421747779851
  4.5551355532458144  9.6629086329744371  7.8897315677487718
  9.1102741540830650  9.6629086229412149 10.5196421747779869
 13.6654127549203164  9.6629086129079926 13.1495527818072020
  1.5183791949911463  1.0736565125453326  7.8897305543932656
  6.0735177958283977  1.0736565025121096 10.5196411614224807
 10.6286563966656455  1.0736564924788869 13.1495517684516976
  3.0367573741184803  5.3682825727598846 10.5196411614224807
  7.5918959749557313  5.3682825627266615 13.1495517684516976
 12.1470345757929810  5.3682825526934383 15.7794623754809127
  4.5551355532458144  9.6629086329744371 13.1495517684516976
  9.1102741540830650  9.6629086229412149 15.7794623754809145
 13.6654127549203164  9.6629086129079926 18.4093729825101278
  1.5183791949911463  1.0736565125453326 13.1495507550961932
  6.0735177958283977  1.0736565025121096 15.7794613621254101
 10.6286563966656455  1.0736564924788869 18.4093719691546269
  3.0367573741184803  5.3682825727598846 15.7794613621254101
  7.5918959749557313  5.3682825627266615 18.4093719691546269
 12.1470345757929810  5.3682825526934383 21.0392825761838402
  4.5551355532458144  9.6629086329744371 18.4093719691546269
  9.1102741540830650  9.6629086229412149 21.0392825761838402
 13.6654127549203164  9.6629086129079926 23.6691931832130571
  0.0000000000000000  0.0000000000000000  0.0000000000000000
  4.5551386008372505 -0.0000000100332228  2.6299106070292155
  9.1102772016745011 -0.0000000200664457  5.2598212140584311
  1.5183781791273341  4.2946260602145525  2.6299106070292155
  6.0735167799645851  4.2946260501813294  5.2598212140584311
 10.6286553808018329  4.2946260401481062  7.8897318210876453
  3.0367563582546682  8.5892521204291050  5.2598212140584311
  7.5918949590919196  8.5892521103958810  7.8897318210876479
 12.1470335599291701  8.5892521003626587 10.5196424281168621
  0.0000000000000000  0.0000000000000000  5.2598202007029267
  4.5551386008372505 -0.0000000100332228  7.8897308077321426
  9.1102772016745011 -0.0000000200664457 10.5196414147613577
  1.5183781791273341  4.2946260602145525  7.8897308077321426
  6.0735167799645851  4.2946260501813294 10.5196414147613577
 10.6286553808018329  4.2946260401481062 13.1495520217905728
  3.0367563582546682  8.5892521204291050 10.5196414147613577
  7.5918949590919196  8.5892521103958810 13.1495520217905746
 12.1470335599291701  8.5892521003626587 15.7794626288197897
  0.0000000000000000  0.0000000000000000 10.5196404014058533
  4.5551386008372505 -0.0000000100332228 13.1495510084350684
  9.1102772016745011 -0.0000000200664457 15.7794616154642853
  1.5183781791273341  4.2946260602145525 13.1495510084350684
  6.0735167799645851  4.2946260501813294 15.7794616154642853
 10.6286553808018329  4.2946260401481062 18.4093722224934986
  3.0367563582546682  8.5892521204291050 15.7794616154642853
  7.5918949590919196  8.5892521103958810 18.4093722224935021
 12.1470335599291701  8.5892521003626587 21.0392828295227154
