Na
 1.0000000000000000
    11.0663130000000010    0.0000000000000000    0.0000000000000000
    -5.5331549999999998    9.5837070000000004    0.0000000000000000
     0.0000000000000000    0.0000000000000000   12.5383879999999994
 Na 
  36
Cartesian
  0.0066157237907326  2.1297137315230001  1.5747959797789739
  3.6887694889480005  2.1297137315230001  1.5672984999999995
  7.3775404889480010  2.1297137315230001  1.5672984999999995
 -1.8443865110519999  5.3242827315230015  1.5672984999999995
  1.8443844889480001  5.3242827315230015  1.5672984999999995
  5.5331554889480001  5.3242827315230015  1.5672984999999995
 -3.6887715110519999  8.5188517315230001  1.5672984999999995
 -0.0000005110519994  8.5188517315230001  1.5672984999999995
  3.6887704889480006  8.5188517315230001  1.5672984999999995
 -0.0000015110519998  2.1297137315230001  7.8364924999999985
  3.6887694889480005  2.1297137315230001  7.8364924999999985
  7.3775404889480010  2.1297137315230001  7.8364924999999985
 -1.8443865110519999  5.3242827315230015  7.8364924999999985
  1.8443844889480001  5.3242827315230015  7.8364924999999985
  5.5331554889480001  5.3242827315230015  7.8364924999999985
 -3.6887715110519999  8.5188517315230001  7.8364924999999985
 -0.0000005110519994  8.5188517315230001  7.8364924999999985
  3.6887704889480006  8.5188517315230001  7.8364924999999985
  1.8443875110520001  1.0648552684770003  4.7018955000000000
  5.5331585110519992  1.0648552684770003  4.7018955000000000
  9.2219295110520019  1.0648552684770003  4.7018955000000000
  0.0000025110520003  4.2594242684769998  4.7018955000000000
  3.6887735110519992  4.2594242684769998  4.7018955000000000
  7.3775445110520002  4.2594242684769998  4.7018955000000000
 -1.8443824889479998  7.4539932684770003  4.7018955000000000
  1.8443885110519993  7.4539932684770003  4.7018955000000000
  5.5331595110520002  7.4539932684770003  4.7018955000000000
  1.8443875110520001  1.0648552684770003 10.9710894999999997
  5.5331585110519992  1.0648552684770003 10.9710894999999997
  9.2219295110520019  1.0648552684770003 10.9710894999999997
  0.0000025110520003  4.2594242684769998 10.9710894999999997
  3.6887735110519992  4.2594242684769998 10.9710894999999997
  7.3775445110520002  4.2594242684769998 10.9710894999999997
 -1.8443824889479998  7.4539932684770003 10.9710894999999997
  1.8443885110519993  7.4539932684770003 10.9710894999999997
  5.5331595110520002  7.4539932684770003 10.9710894999999997
