K  S 
 1.0000000000000000
    13.5287524872760123   -0.0000000297986517    7.8108292159585311
     4.5095801396073654   12.7550307653358459    7.8108292159585311
     0.0000000000000000    0.0000000000000000   15.6216554222532551
 K   S  
  54  27
Cartesian
  4.5095831567208426  3.1887576838842984  7.8108284635425784
  9.0191673191461810  3.1887576739514145 10.4144382021954236
 13.5287514815715166  3.1887576640185307 13.0180479408482643
  6.0127765365899632  7.4404346056629125 10.4144382021954218
 10.5223606990152998  7.4404345957300286 13.0180479408482643
 15.0319448614406372  7.4404345857971448 15.6216576795011068
  7.5159699164590856 11.6921115274415293 13.0180479408482661
 12.0255540788844222 11.6921115175086445 15.6216576795011086
 16.5351382413097596 11.6921115075757616 18.2252674181539547
  4.5095831567208426  3.1887576838842984 13.0180469376269965
  9.0191673191461810  3.1887576739514145 15.6216566762798408
 13.5287514815715166  3.1887576640185307 18.2252664149326833
  6.0127765365899632  7.4404346056629125 15.6216566762798390
 10.5223606990152998  7.4404345957300286 18.2252664149326833
 15.0319448614406372  7.4404345857971448 20.8288761535855258
  7.5159699164590856 11.6921115274415293 18.2252664149326833
 12.0255540788844222 11.6921115175086445 20.8288761535855258
 16.5351382413097596 11.6921115075757616 23.4324858922383719
  4.5095831567208426  3.1887576838842984 18.2252654117114155
  9.0191673191461810  3.1887576739514145 20.8288751503642580
 13.5287514815715166  3.1887576640185307 23.4324848890171040
  6.0127765365899632  7.4404346056629125 20.8288751503642580
 10.5223606990152998  7.4404345957300286 23.4324848890171005
 15.0319448614406372  7.4404345857971448 26.0360946276699465
  7.5159699164590856 11.6921115274415293 23.4324848890171040
 12.0255540788844222 11.6921115175086445 26.0360946276699465
 16.5351382413097596 11.6921115075757616 28.6397043663227890
  1.5031943855736150  1.0629192279614330  2.6036094878475255
  6.0127785479989502  1.0629192180285492  5.2072192265003689
 10.5223627104242912  1.0629192080956653  7.8108289651532115
  3.0063877654427360  5.3145961497400478  5.2072192265003681
  7.5159719278680717  5.3145961398071639  7.8108289651532115
 12.0255560902934100  5.3145961298742801 10.4144387038060540
  4.5095811453118575  9.5662730715186637  7.8108289651532123
  9.0191653077371949  9.5662730615857789 10.4144387038060540
 13.5287494701625324  9.5662730516528960 13.0180484424588965
  1.5031943855736150  1.0629192279614330  7.8108279619319436
  6.0127785479989502  1.0629192180285492 10.4144377005847879
 10.5223627104242912  1.0629192080956653 13.0180474392376304
  3.0063877654427360  5.3145961497400478 10.4144377005847861
  7.5159719278680717  5.3145961398071639 13.0180474392376304
 12.0255560902934100  5.3145961298742801 15.6216571778904729
  4.5095811453118575  9.5662730715186637 13.0180474392376304
  9.0191653077371949  9.5662730615857789 15.6216571778904729
 13.5287494701625324  9.5662730516528960 18.2252669165433154
  1.5031943855736150  1.0629192279614330 13.0180464360163626
  6.0127785479989502  1.0629192180285492 15.6216561746692051
 10.5223627104242912  1.0629192080956653 18.2252659133220511
  3.0063877654427360  5.3145961497400478 15.6216561746692069
  7.5159719278680717  5.3145961398071639 18.2252659133220476
 12.0255560902934100  5.3145961298742801 20.8288756519748937
  4.5095811453118575  9.5662730715186637 18.2252659133220511
  9.0191653077371949  9.5662730615857789 20.8288756519748937
 13.5287494701625324  9.5662730516528960 23.4324853906277362
  0.0086602539475839 -0.0000000000190752  0.0050000001563358
  4.5095841624253374 -0.0000000099328839  2.6036097386528430
  9.0191683248506749 -0.0000000198657678  5.2072194773056859
  1.5031933798691217  4.2516769217786150  2.6036097386528434
  6.0127775422944589  4.2516769118457312  5.2072194773056868
 10.5223617047197973  4.2516769019128473  7.8108292159585293
  3.0063867597382434  8.5033538435572300  5.2072194773056868
  7.5159709221635795  8.5033538336243470  7.8108292159585293
 12.0255550845889179  8.5033538236914623 10.4144389546113736
  0.0000000000000000  0.0000000000000000  5.2072184740844181
  4.5095841624253374 -0.0000000099328839  7.8108282127372606
  9.0191683248506749 -0.0000000198657678 10.4144379513901058
  1.5031933798691217  4.2516769217786150  7.8108282127372615
  6.0127775422944589  4.2516769118457312 10.4144379513901058
 10.5223617047197973  4.2516769019128473 13.0180476900429483
  3.0063867597382434  8.5033538435572300 10.4144379513901058
  7.5159709221635795  8.5033538336243470 13.0180476900429483
 12.0255550845889179  8.5033538236914623 15.6216574286957925
  0.0000000000000000  0.0000000000000000 10.4144369481688361
  4.5095841624253374 -0.0000000099328839 13.0180466868216804
  9.0191683248506749 -0.0000000198657678 15.6216564254745212
  1.5031933798691217  4.2516769217786150 13.0180466868216804
  6.0127775422944589  4.2516769118457312 15.6216564254745229
 10.5223617047197973  4.2516769019128473 18.2252661641273654
  3.0063867597382434  8.5033538435572300 15.6216564254745229
  7.5159709221635795  8.5033538336243470 18.2252661641273654
 12.0255550845889179  8.5033538236914623 20.8288759027802115
