K  S 
 1.0000000000000000
    13.6201657500000000   -0.0000000300000000    7.8636066899999966
     4.5400511999999997   12.8412160199999992    7.8636066899999966
     0.0000000000000000    0.0000000000000000   15.7272103500000000
 K   S  
  54  27
Cartesian
  4.5400542374999988  3.2103039974999992  7.8636059324999978
  9.0801094874999979  3.2103039874999992 10.4848081624999949
 13.6201647375000032  3.2103039774999993 13.1060103924999947
  6.0534046374999999  7.4907093374999976 10.4848081624999949
 10.5934598874999999  7.4907093274999967 13.1060103924999947
 15.1335151375000034  7.4907093174999968 15.7272126224999944
  7.5667550374999983 11.7711146774999964 13.1060103924999947
 12.1068102875000001 11.7711146674999974 15.7272126224999944
 16.6468655375000019 11.7711146574999965 18.3484148524999924
  4.5400542374999988  3.2103039974999992 13.1060093824999964
  9.0801094874999979  3.2103039874999992 15.7272116124999943
 13.6201647375000032  3.2103039774999993 18.3484138424999941
  6.0534046374999999  7.4907093374999976 15.7272116124999943
 10.5934598874999999  7.4907093274999967 18.3484138424999941
 15.1335151375000034  7.4907093174999968 20.9696160724999920
  7.5667550374999983 11.7711146774999964 18.3484138424999941
 12.1068102875000001 11.7711146674999974 20.9696160724999920
 16.6468655375000019 11.7711146574999965 23.5908183024999900
  4.5400542374999988  3.2103039974999992 18.3484128324999958
  9.0801094874999979  3.2103039874999992 20.9696150624999937
 13.6201647375000032  3.2103039774999993 23.5908172924999953
  6.0534046374999999  7.4907093374999976 20.9696150624999937
 10.5934598874999999  7.4907093274999967 23.5908172924999953
 15.1335151375000034  7.4907093174999968 26.2120195224999932
  7.5667550374999983 11.7711146774999964 23.5908172924999953
 12.1068102875000001 11.7711146674999974 26.2120195224999932
 16.6468655375000019 11.7711146574999965 28.8332217524999912
  1.5133514125000003  1.0701013324999999  2.6212019774999993
  6.0534066625000014  1.0701013224999998  5.2424042074999981
 10.5934619125000022  1.0701013124999998  7.8636064374999952
  3.0267018125000003  5.3505066724999981  5.2424042074999972
  7.5667570624999998  5.3505066624999982  7.8636064374999961
 12.1068123125000024  5.3505066524999982 10.4848086674999941
  4.5400522125000000  9.6309120124999978  7.8636064374999961
  9.0801074625000009  9.6309120024999988 10.4848086674999976
 13.6201627125000009  9.6309119924999980 13.1060108974999920
  1.5133514125000003  1.0701013324999999  7.8636054274999987
  6.0534066625000014  1.0701013224999998 10.4848076574999975
 10.5934619125000022  1.0701013124999998 13.1060098874999937
  3.0267018125000003  5.3505066724999981 10.4848076574999975
  7.5667570624999998  5.3505066624999982 13.1060098874999955
 12.1068123125000024  5.3505066524999982 15.7272121174999935
  4.5400522125000000  9.6309120124999978 13.1060098874999955
  9.0801074625000009  9.6309120024999988 15.7272121174999970
 13.6201627125000009  9.6309119924999980 18.3484143474999932
  1.5133514125000003  1.0701013324999999 13.1060088774999990
  6.0534066625000014  1.0701013224999998 15.7272111074999987
 10.5934619125000022  1.0701013124999998 18.3484133374999985
  3.0267018125000003  5.3505066724999981 15.7272111074999970
  7.5667570624999998  5.3505066624999982 18.3484133374999985
 12.1068123125000024  5.3505066524999982 20.9696155674999929
  4.5400522125000000  9.6309120124999978 18.3484133374999985
  9.0801074625000009  9.6309120024999988 20.9696155674999964
 13.6201627125000009  9.6309119924999980 23.5908177974999944
  0.0086602539475839 -0.0000000000190752  0.0050000001563358
  4.5400552500000009 -0.0000000100000000  2.6212022299999989
  9.0801105000000017 -0.0000000200000000  5.2424044599999977
  1.5133504000000000  4.2804053399999997  2.6212022299999993
  6.0534056500000011  4.2804053299999998  5.2424044599999986
 10.5934609000000020  4.2804053199999998  7.8636066899999966
  3.0267008000000000  8.5608106799999995  5.2424044599999986
  7.5667560500000004  8.5608106699999968  7.8636066899999948
 12.1068113000000022  8.5608106599999996 10.4848089199999972
  0.0000000000000000  0.0000000000000000  5.2424034499999994
  4.5400552500000009 -0.0000000100000000  7.8636056799999983
  9.0801105000000017 -0.0000000200000000 10.4848079099999971
  1.5133504000000000  4.2804053399999997  7.8636056799999983
  6.0534056500000011  4.2804053299999998 10.4848079099999971
 10.5934609000000020  4.2804053199999998 13.1060101399999969
  3.0267008000000000  8.5608106799999995 10.4848079099999971
  7.5667560500000004  8.5608106699999968 13.1060101399999951
 12.1068113000000022  8.5608106599999996 15.7272123699999966
  0.0000000000000000  0.0000000000000000 10.4848068999999988
  4.5400552500000009 -0.0000000100000000 13.1060091299999986
  9.0801105000000017 -0.0000000200000000 15.7272113599999965
  1.5133504000000000  4.2804053399999997 13.1060091299999986
  6.0534056500000011  4.2804053299999998 15.7272113599999965
 10.5934609000000020  4.2804053199999998 18.3484135899999963
  3.0267008000000000  8.5608106799999995 15.7272113599999965
  7.5667560500000004  8.5608106699999968 18.3484135899999963
 12.1068113000000022  8.5608106599999996 20.9696158199999942
