Na
 1.0000000000000000
    11.1030784295515090    0.0000000000000000    0.0000000000000000
    -5.5515377097923277    9.6155467920383053    0.0000000000000000
     0.0000000000000000    0.0000000000000000   12.5800440800967284
 Na 
  36
Cartesian
 -0.0000015160721427  2.1367892444026002  1.5725055100120910
  3.7010246271116936  2.1367892444026002  1.5725055100120910
  7.4020507702955296  2.1367892444026002  1.5725055100120910
 -1.8505140860029181  5.3419715084153676  1.5725055100120910
  1.8505120571809179  5.3419715084153676  1.5725055100120910
  5.5515382003647540  5.3419715084153676  1.5725055100120910
 -3.7010266559336942  8.5471537724281372  1.5725055100120910
 -0.0000005127498581  8.5471537724281372  1.5725055100120910
  3.7010256304339779  8.5471537724281372  1.5725055100120910
 -0.0000015160721427  2.1367892444026002  7.8625275500604550
  3.7010246271116936  2.1367892444026002  7.8625275500604550
  7.4020507702955296  2.1367892444026002  7.8625275500604550
 -1.8505140860029181  5.3419715084153676  7.8625275500604550
  1.8505120571809179  5.3419715084153676  7.8625275500604550
  5.5515382003647540  5.3419715084153676  7.8625275500604550
 -3.7010266559336942  8.5471537724281372  7.8625275500604550
 -0.0000005127498581  8.5471537724281372  7.8625275500604550
  3.7010256304339779  8.5471537724281372  7.8625275500604550
  1.8505150893252034  1.0683930196101681  4.7175165300362742
  5.5515412325090381  1.0683930196101681  4.7175165300362742
  9.2525673756928750  1.0683930196101681  4.7175165300362742
  0.0000025193944274  4.2735752836229368  4.7175165300362742
  3.7010286625782620  4.2735752836229368  4.7175165300362742
  7.4020548057621003  4.2735752836229368  4.7175165300362742
 -1.8505100505363488  7.4787575476357055  4.7175165300362742
  1.8505160926474860  7.4787575476357055  4.7175165300362742
  5.5515422358313238  7.4787575476357055  4.7175165300362742
  1.8505150893252034  1.0683930196101681 11.0075385700846375
  5.5515412325090381  1.0683930196101681 11.0075385700846375
  9.2525673756928750  1.0683930196101681 11.0075385700846375
  0.0000025193944274  4.2735752836229368 11.0075385700846375
  3.7010286625782620  4.2735752836229368 11.0075385700846375
  7.4020548057621003  4.2735752836229368 11.0075385700846375
 -1.8505100505363488  7.4787575476357055 11.0075385700846375
  1.8505160926474860  7.4787575476357055 11.0075385700846375
  5.5515422358313238  7.4787575476357055 11.0075385700846375
