K  S 
 1.0000000000000000
    13.5746130159275964   -0.0000000298996648    7.8373068056245412
     4.5248669688544503   12.7982684884308373    7.8373068056245412
     0.0000000000000000    0.0000000000000000   15.6746105913829439
 K   S  
  54  27
Cartesian
  4.5248699961955117  3.1995671146327931  7.8373060506580066
  9.0497410015047102  3.1995671046662384 10.4497416525328539
 13.5746120068139078  3.1995670946996833 13.0621772544077004
  6.0331589858136612  7.4656566107764046 10.4497416525328521
 10.5580299911228614  7.4656566008098499 13.0621772544077004
 15.0829009964320608  7.4656565908432944 15.6746128562825469
  7.5414479754318124 11.7317461069200171 13.0621772544077004
 12.0663189807410092 11.7317460969534633 15.6746128562825486
 16.5911899860502139 11.7317460869869077 18.2870484581573933
  4.5248699961955117  3.1995671146327931 13.0621762477856542
  9.0497410015047102  3.1995671046662384 15.6746118496605007
 13.5746120068139078  3.1995670946996833 18.2870474515353472
  6.0331589858136612  7.4656566107764046 15.6746118496605007
 10.5580299911228614  7.4656566008098499 18.2870474515353472
 15.0829009964320608  7.4656565908432944 20.8994830534101936
  7.5414479754318124 11.7317461069200171 18.2870474515353472
 12.0663189807410092 11.7317460969534633 20.8994830534101972
 16.5911899860502139 11.7317460869869077 23.5119186552850437
  4.5248699961955117  3.1995671146327931 18.2870464449133010
  9.0497410015047102  3.1995671046662384 20.8994820467881510
 13.5746120068139078  3.1995670946996833 23.5119176486629975
  6.0331589858136612  7.4656566107764046 20.8994820467881475
 10.5580299911228614  7.4656566008098499 23.5119176486629975
 15.0829009964320608  7.4656565908432944 26.1243532505378440
  7.5414479754318124 11.7317461069200171 23.5119176486629975
 12.0663189807410092 11.7317460969534633 26.1243532505378440
 16.5911899860502139 11.7317460869869077 28.7367888524126904
  1.5082899987318374  1.0665223715442644  2.6124353502193349
  6.0331610040410357  1.0665223615777095  5.2248709520941814
 10.5580320093502351  1.0665223516111546  7.8373065539690270
  3.0165789883499872  5.3326118676878762  5.2248709520941814
  7.5414499936591852  5.3326118577213215  7.8373065539690288
 12.0663209989683846  5.3326118477547668 10.4497421558438752
  4.5248679779681371  9.5987013638314895  7.8373065539690288
  9.0497389832773365  9.5987013538649339 10.4497421558438752
 13.5746099885865359  9.5987013438983801 13.0621777577187235
  1.5082899987318374  1.0665223715442644  7.8373055473469826
  6.0331610040410357  1.0665223615777095 10.4497411492218291
 10.5580320093502351  1.0665223516111546 13.0621767510966755
  3.0165789883499872  5.3326118676878762 10.4497411492218291
  7.5414499936591852  5.3326118577213215 13.0621767510966773
 12.0663209989683846  5.3326118477547668 15.6746123529715238
  4.5248679779681371  9.5987013638314895 13.0621767510966773
  9.0497389832773365  9.5987013538649339 15.6746123529715238
 13.5746099885865359  9.5987013438983801 18.2870479548463685
  1.5082899987318374  1.0665223715442644 13.0621757444746311
  6.0331610040410357  1.0665223615777095 15.6746113463494776
 10.5580320093502351  1.0665223516111546 18.2870469482243259
  3.0165789883499872  5.3326118676878762 15.6746113463494794
  7.5414499936591852  5.3326118577213215 18.2870469482243259
 12.0663209989683846  5.3326118477547668 20.8994825500991723
  4.5248679779681371  9.5987013638314895 18.2870469482243259
  9.0497389832773365  9.5987013538649339 20.8994825500991723
 13.5746099885865359  9.5987013438983801 23.5119181519740224
  0.0086602539475839 -0.0000000000190752  0.0050000001563358
  4.5248710053091985 -0.0000000099665549  2.6124356018748465
  9.0497420106183970 -0.0000000199331099  5.2248712037496929
  1.5082889896181499  4.2660894961436124  2.6124356018748469
  6.0331599949273498  4.2660894861770569  5.2248712037496947
 10.5580310002365465  4.2660894762105022  7.8373068056245412
  3.0165779792362999  8.5321789922872249  5.2248712037496938
  7.5414489845454993  8.5321789823206693  7.8373068056245412
 12.0663199898546996  8.5321789723541137 10.4497424074993894
  0.0000000000000000  0.0000000000000000  5.2248701971276477
  4.5248710053091985 -0.0000000099665549  7.8373057990024950
  9.0497420106183970 -0.0000000199331099 10.4497414008773415
  1.5082889896181499  4.2660894961436124  7.8373057990024950
  6.0331599949273498  4.2660894861770569 10.4497414008773433
 10.5580310002365465  4.2660894762105022 13.0621770027521897
  3.0165779792362999  8.5321789922872249 10.4497414008773415
  7.5414489845454993  8.5321789823206693 13.0621770027521897
 12.0663199898546996  8.5321789723541137 15.6746126046270380
  0.0000000000000000  0.0000000000000000 10.4497403942552953
  4.5248710053091985 -0.0000000099665549 13.0621759961301418
  9.0497420106183970 -0.0000000199331099 15.6746115980049900
  1.5082889896181499  4.2660894961436124 13.0621759961301418
  6.0331599949273498  4.2660894861770569 15.6746115980049918
 10.5580310002365465  4.2660894762105022 18.2870471998798365
  3.0165779792362999  8.5321789922872249 15.6746115980049900
  7.5414489845454993  8.5321789823206693 18.2870471998798365
 12.0663199898546996  8.5321789723541137 20.8994828017546865
