K  S 
 1.0000000000000000
    13.6201657500000000   -0.0000000300000000    7.8636066899999966
     4.5400511999999997   12.8412160199999992    7.8636066899999966
     0.0000000000000000    0.0000000000000000   15.7272103500000000
 K   S  
  54  27
Cartesian
  4.5400542374999988  3.2103039974999996  7.8636059324999978
  9.0801094874999979  3.2103039874999997 10.4848081624999967
 13.6201647374999997  3.2103039774999997 13.1060103924999947
  6.0534046374999990  7.4907093374999985 10.4848081624999949
 10.5934598874999981  7.4907093274999985 13.1060103924999947
 15.1335151374999999  7.4907093174999986 15.7272126224999944
  7.5667550374999983 11.7711146774999982 13.1060103924999947
 12.1068102874999983 11.7711146674999991 15.7272126224999944
 16.6468655374999983 11.7711146574999983 18.3484148524999924
  4.5400542374999988  3.2103039974999996 13.1060093824999964
  9.0801094874999979  3.2103039874999997 15.7272116124999961
 13.6201647374999997  3.2103039774999997 18.3484138424999941
  6.0534046374999990  7.4907093374999985 15.7272116124999943
 10.5934598874999981  7.4907093274999985 18.3484138424999941
 15.1335151374999999  7.4907093174999986 20.9696160724999920
  7.5667550374999983 11.7711146774999982 18.3484138424999941
 12.1068102874999983 11.7711146674999991 20.9696160724999920
 16.6468655374999983 11.7711146574999983 23.5908183024999900
  4.5400542374999988  3.2103039974999996 18.3484128324999958
  9.0801094874999979  3.2103039874999997 20.9696150624999973
 13.6201647374999997  3.2103039774999997 23.5908172924999953
  6.0534046374999990  7.4907093374999985 20.9696150624999937
 10.5934598874999981  7.4907093274999985 23.5908172924999953
 15.1335151374999999  7.4907093174999986 26.2120195224999932
  7.5667550374999983 11.7711146774999982 23.5908172924999953
 12.1068102874999983 11.7711146674999991 26.2120195224999932
 16.6468655374999983 11.7711146574999983 28.8332217524999912
  1.5133514125000000  1.0701013324999999  2.6212019774999993
  6.0534066624999996  1.0701013225000000  5.2424042074999981
 10.5934619125000005  1.0701013125000001  7.8636064374999961
  3.0267018124999998  5.3505066724999990  5.2424042074999972
  7.5667570624999989  5.3505066624999991  7.8636064374999961
 12.1068123125000007  5.3505066524999991 10.4848086674999941
  4.5400522125000000  9.6309120124999996  7.8636064374999961
  9.0801074624999991  9.6309120024999988 10.4848086674999958
 13.6201627125000009  9.6309119924999997 13.1060108974999938
  1.5133514125000000  1.0701013324999999  7.8636054274999987
  6.0534066624999996  1.0701013225000000 10.4848076574999975
 10.5934619125000005  1.0701013125000001 13.1060098874999955
  3.0267018124999998  5.3505066724999990 10.4848076574999975
  7.5667570624999989  5.3505066624999991 13.1060098874999955
 12.1068123125000007  5.3505066524999991 15.7272121174999935
  4.5400522125000000  9.6309120124999996 13.1060098874999955
  9.0801074624999991  9.6309120024999988 15.7272121174999953
 13.6201627125000009  9.6309119924999997 18.3484143474999932
  1.5133514125000000  1.0701013324999999 13.1060088774999990
  6.0534066624999996  1.0701013225000000 15.7272111074999987
 10.5934619125000005  1.0701013125000001 18.3484133374999985
  3.0267018124999998  5.3505066724999990 15.7272111074999970
  7.5667570624999989  5.3505066624999991 18.3484133374999985
 12.1068123125000007  5.3505066524999991 20.9696155674999929
  4.5400522125000000  9.6309120124999996 18.3484133374999985
  9.0801074624999991  9.6309120024999988 20.9696155674999964
 13.6201627125000009  9.6309119924999997 23.5908177974999944
  0.0000000000000000  0.0000000000000000  0.0000000000000000
  4.5400552500000000 -0.0000000100000000  2.6212022299999989
  9.0801105000000000 -0.0000000200000000  5.2424044599999977
  1.5133503999999998  4.2804053399999997  2.6212022299999989
  6.0534056500000002  4.2804053299999998  5.2424044599999977
 10.5934609000000002  4.2804053199999998  7.8636066899999966
  3.0267007999999995  8.5608106799999995  5.2424044599999977
  7.5667560499999995  8.5608106699999986  7.8636066899999966
 12.1068113000000004  8.5608106599999996 10.4848089199999954
  0.0000000000000000  0.0000000000000000  5.2424034499999994
  4.5400552500000000 -0.0000000100000000  7.8636056799999983
  9.0801105000000000 -0.0000000200000000 10.4848079099999971
  1.5133503999999998  4.2804053399999997  7.8636056799999983
  6.0534056500000002  4.2804053299999998 10.4848079099999971
 10.5934609000000002  4.2804053199999998 13.1060101399999969
  3.0267007999999995  8.5608106799999995 10.4848079099999971
  7.5667560499999995  8.5608106699999986 13.1060101399999969
 12.1068113000000004  8.5608106599999996 15.7272123699999948
  0.0000000000000000  0.0000000000000000 10.4848068999999988
  4.5400552500000000 -0.0000000100000000 13.1060091299999986
  9.0801105000000000 -0.0000000200000000 15.7272113599999965
  1.5133503999999998  4.2804053399999997 13.1060091299999986
  6.0534056500000002  4.2804053299999998 15.7272113599999965
 10.5934609000000002  4.2804053199999998 18.3484135899999963
  3.0267007999999995  8.5608106799999995 15.7272113599999965
  7.5667560499999995  8.5608106699999986 18.3484135899999963
 12.1068113000000004  8.5608106599999996 20.9696158199999942
