Sr S 
 1.0000000000000000
    11.1109481399999996    0.0000000000000000    6.4149103800000002
     3.7036483799999997   10.4755017000000006    6.4149103800000002
     0.0000000300000000    0.0000000300000000   12.8298146099999997
 Sr  S  
  27  27
Cartesian
  0.0000000000000000  0.0000000000000000  0.0000000000000000
  3.7036493799999999  0.0000000000000000  2.1383034599999999
  7.4072987599999998  0.0000000000000000  4.2766069199999999
  1.2345494599999998  3.4918339000000000  2.1383034599999999
  4.9381988400000001  3.4918339000000000  4.2766069199999999
  8.6418482200000000  3.4918339000000000  6.4149103800000002
  2.4690989199999995  6.9836678000000001  4.2766069199999999
  6.1727482999999994  6.9836678000000001  6.4149103800000002
  9.8763976800000002  6.9836678000000001  8.5532138399999997
  0.0000000100000000  0.0000000100000000  4.2766048699999999
  3.7036493899999998  0.0000000100000000  6.4149083299999994
  7.4072987699999997  0.0000000100000000  8.5532117899999989
  1.2345494699999997  3.4918339100000000  6.4149083299999994
  4.9381988500000000  3.4918339100000000  8.5532117899999989
  8.6418482300000008  3.4918339100000000 10.6915152500000001
  2.4690989299999995  6.9836678100000000  8.5532117899999989
  6.1727483099999993  6.9836678100000000 10.6915152500000001
  9.8763976900000010  6.9836678100000000 12.8298187099999996
  0.0000000200000000  0.0000000200000000  8.5532097399999998
  3.7036493999999998  0.0000000200000000 10.6915131999999993
  7.4072987799999996  0.0000000200000000 12.8298166599999988
  1.2345494799999999  3.4918339199999999 10.6915131999999993
  4.9381988600000000  3.4918339199999999 12.8298166599999988
  8.6418482399999998  3.4918339199999999 14.9681201200000000
  2.4690989399999994  6.9836678200000000 12.8298166599999988
  6.1727483199999993  6.9836678200000000 14.9681201200000000
  9.8763977000000001  6.9836678200000000 17.1064235799999977
  2.4690994250000000  1.7459169549999998  4.2766058949999994
  6.1727488050000003  1.7459169549999998  6.4149093549999989
  9.8763981849999993  1.7459169549999998  8.5532128149999984
  3.7036488850000002  5.2377508550000007  6.4149093549999998
  7.4072982649999997  5.2377508550000007  8.5532128150000002
 11.1109476449999995  5.2377508550000007 10.6915162749999997
  4.9381983450000000  8.7295847549999994  8.5532128150000002
  8.6418477249999999  8.7295847549999994 10.6915162749999997
 12.3454971049999980  8.7295847549999994 12.8298197349999992
  2.4690994350000000  1.7459169649999997  8.5532107649999993
  6.1727488150000003  1.7459169649999997 10.6915142249999988
  9.8763981949999984  1.7459169649999997 12.8298176849999983
  3.7036488950000002  5.2377508650000006 10.6915142250000006
  7.4072982749999996  5.2377508650000006 12.8298176850000001
 11.1109476549999986  5.2377508650000006 14.9681211449999996
  4.9381983549999999  8.7295847649999985 12.8298176850000001
  8.6418477349999989  8.7295847649999985 14.9681211449999996
 12.3454971149999970  8.7295847649999985 17.1064246050000008
  2.4690994449999999  1.7459169749999999 12.8298156349999992
  6.1727488250000002  1.7459169749999999 14.9681190949999987
  9.8763982049999992  1.7459169749999999 17.1064225549999982
  3.7036489050000001  5.2377508750000006 14.9681190949999987
  7.4072982849999995  5.2377508750000006 17.1064225549999982
 11.1109476649999994  5.2377508750000006 19.2447260149999977
  4.9381983649999999  8.7295847749999993 17.1064225549999982
  8.6418477449999997  8.7295847749999993 19.2447260149999977
 12.3454971249999979  8.7295847749999993 21.3830294749999972
