Sr S 
 1.0000000000000000
    11.0737875007534701    0.0000000000000000    6.3934556699764862
     3.6912615035956637   10.4404663155579929    6.3934556699764862
     0.0000000298996648    0.0000000298996648   12.7869052105216880
 Sr  S  
  27  27
Cartesian
  0.0000000000000000  0.0000000000000000  0.0000000000000000
  3.6912625002511565  0.0000000000000000  2.1311518899921618
  7.3825250005023131  0.0000000000000000  4.2623037799843235
  1.2304205011985545  3.4801554385193310  2.1311518899921618
  4.9216830014497113  3.4801554385193310  4.2623037799843235
  8.6129455017008674  3.4801554385193310  6.3934556699764853
  2.4608410023971090  6.9603108770386619  4.2623037799843235
  6.1521035026482656  6.9603108770386619  6.3934556699764853
  9.8433660028994225  6.9603108770386619  8.5246075599686471
  0.0000000099665549  0.0000000099665549  4.2623017368405627
  3.6912625102177117  0.0000000099665549  6.3934536268327244
  7.3825250104688678  0.0000000099665549  8.5246055168248862
  1.2304205111651094  3.4801554484858861  6.3934536268327244
  4.9216830114162660  3.4801554484858861  8.5246055168248862
  8.6129455116674229  3.4801554484858861 10.6557574068170471
  2.4608410123636641  6.9603108870052166  8.5246055168248862
  6.1521035126148202  6.9603108870052166 10.6557574068170471
  9.8433660128659781  6.9603108870052166 12.7869092968092097
  0.0000000199331099  0.0000000199331099  8.5246034736811254
  3.6912625201842664  0.0000000199331099 10.6557553636732862
  7.3825250204354234  0.0000000199331099 12.7869072536654489
  1.2304205211316643  3.4801554584524408 10.6557553636732862
  4.9216830213828215  3.4801554584524408 12.7869072536654489
  8.6129455216339768  3.4801554584524408 14.9180591436576098
  2.4608410223302188  6.9603108969717722 12.7869072536654489
  6.1521035225813758  6.9603108969717722 14.9180591436576098
  9.8433660228325319  6.9603108969717722 17.0492110336497724
  2.4608415057081339  1.7400777242429430  4.2623027584124431
  6.1521040059592904  1.7400777242429430  6.3934546484046049
  9.8433665062104456  1.7400777242429430  8.5246065383967675
  3.6912620069066882  5.2202331627622742  6.3934546484046049
  7.3825245071578447  5.2202331627622742  8.5246065383967675
 11.0737870074089990  5.2202331627622742 10.6557584283889284
  4.9216825081052429  8.7003886012816043  8.5246065383967675
  8.6129450083563999  8.7003886012816043 10.6557584283889284
 12.3042075086075542  8.7003886012816043 12.7869103183810910
  2.4608415156746890  1.7400777342094980  8.5246044952530049
  6.1521040159258451  1.7400777342094980 10.6557563852451676
  9.8433665161769994  1.7400777342094980 12.7869082752373284
  3.6912620168732433  5.2202331727288289 10.6557563852451676
  7.3825245171243994  5.2202331727288289 12.7869082752373284
 11.0737870173755528  5.2202331727288289 14.9180601652294893
  4.9216825180717976  8.7003886112481581 12.7869082752373284
  8.6129450183229537  8.7003886112481581 14.9180601652294893
 12.3042075185741080  8.7003886112481581 17.0492120552216520
  2.4608415256412437  1.7400777441760529 12.7869062320935676
  6.1521040258923998  1.7400777441760529 14.9180581220857302
  9.8433665261435550  1.7400777441760529 17.0492100120778929
  3.6912620268397980  5.2202331826953836 14.9180581220857302
  7.3825245270909541  5.2202331826953836 17.0492100120778929
 11.0737870273421084  5.2202331826953836 19.1803619020700538
  4.9216825280383523  8.7003886212147137 17.0492100120778929
  8.6129450282895093  8.7003886212147137 19.1803619020700538
 12.3042075285406636  8.7003886212147137 21.3115137920622146
