Sr S 
 1.0000000000000000
    11.1478618601425268    0.0000000000000000    6.4362225311794514
     3.7159529500585595   10.5103042868930370    6.4362225311794514
     0.0000000300996685    0.0000000300996685   12.8724388919268584
 Sr  S  
  27  27
Cartesian
  0.0086602535381956  0.0000000000000000  0.0050000008654169
  3.7159539533808426  0.0000000000000000  2.1454075103931514
  7.4319079067616851  0.0000000000000000  4.2908150207863027
  1.2386509833528532  3.5034347622976787  2.1454075103931509
  4.9546049367336957  3.5034347622976787  4.2908150207863018
  8.6705588901145365  3.5034347622976787  6.4362225311794532
  2.4773019667057063  7.0068695245953574  4.2908150207863018
  6.1932559200865480  7.0068695245953574  6.4362225311794523
  9.9092098734673915  7.0068695245953574  8.5816300415726037
  0.0000000100332228  0.0000000100332228  4.2908129639756192
  3.7159539634140653  0.0000000100332228  6.4362204743687705
  7.4319079167949074  0.0000000100332228  8.5816279847619210
  1.2386509933860765  3.5034347723309023  6.4362204743687705
  4.9546049467669189  3.5034347723309014  8.5816279847619210
  8.6705589001477588  3.5034347723309014 10.7270354951550715
  2.4773019767389295  7.0068695346285823  8.5816279847619228
  6.1932559301197720  7.0068695346285823 10.7270354951550733
  9.9092098835006119  7.0068695346285805 12.8724430055482237
  0.0000000200664457  0.0000000200664457  8.5816259279512384
  3.7159539734472884  0.0000000200664457 10.7270334383443888
  7.4319079268281305  0.0000000200664457 12.8724409487375411
  1.2386510034192990  3.5034347823641254 10.7270334383443888
  4.9546049568001402  3.5034347823641245 12.8724409487375393
  8.6705589101809846  3.5034347823641254 15.0178484591306916
  2.4773019867721531  7.0068695446618046 12.8724409487375411
  6.1932559401529943  7.0068695446618028 15.0178484591306916
  9.9092098935338377  7.0068695446618028 17.1632559695238420
  2.4773024733834608  1.7517173861654505  4.2908139923809605
  6.1932564267643020  1.7517173861654505  6.4362215027741119
  9.9092103801451437  1.7517173861654507  8.5816290131672641
  3.7159534567363139  5.2551521484631296  6.4362215027741119
  7.4319074101171552  5.2551521484631296  8.5816290131672641
 11.1478613634979968  5.2551521484631287 10.7270365235604128
  4.9546044400891658  8.7585869107608083  8.5816290131672623
  8.6705583934700083  8.7585869107608083 10.7270365235604128
 12.3865123468508500  8.7585869107608083 12.8724440339535633
  2.4773024834166835  1.7517173961986734  8.5816269563565797
  6.1932564367975269  1.7517173961986734 10.7270344667497319
  9.9092103901783659  1.7517173961986736 12.8724419771428824
  3.7159534667695371  5.2551521584963536 10.7270344667497337
  7.4319074201503801  5.2551521584963528 12.8724419771428824
 11.1478613735312191  5.2551521584963528 15.0178494875360329
  4.9546044501223889  8.7585869207940306 12.8724419771428824
  8.6705584035032324  8.7585869207940306 15.0178494875360329
 12.3865123568840723  8.7585869207940306 17.1632569979291816
  2.4773024934499057  1.7517174062318963 12.8724399203321980
  6.1932564468307483  1.7517174062318965 15.0178474307253502
  9.9092104002115899  1.7517174062318965 17.1632549411184989
  3.7159534768027584  5.2551521685295759 15.0178474307253502
  7.4319074301836014  5.2551521685295768 17.1632549411185025
 11.1478613835644449  5.2551521685295768 19.3086624515116512
  4.9546044601556130  8.7585869308272546 17.1632549411184989
  8.6705584135364564  8.7585869308272546 19.3086624515116512
 12.3865123669172998  8.7585869308272546 21.4540699619048034
