Na
 1.0000000000000000
     3.6887710000000000    0.0000000000000000    0.0000000000000000
    -1.8443849999999999    3.1945690000000000    0.0000000000000000
     0.0000000000000000    0.0000000000000000    6.2691939999999997
 Na 
   2
Cartesian
 -0.0000015110520000  2.1297137315230001  1.5672984999999999
  1.8443875110520003  1.0648552684770001  4.7018955000000000
