Na
 1.0000000000000000
    11.0293016432732305    0.0000000000000000    0.0000000000000000
    -5.5146493266533749    9.5516542288067541    0.0000000000000000
     0.0000000000000000    0.0000000000000000   12.4964532787385778
 Na 
  36
Cartesian
 -0.0000015059982764  2.1225908899186372  1.5620566598423220
  3.6764323750928005  2.1225908899186372  1.5620566598423220
  7.3528662561838782  2.1225908899186372  1.5620566598423220
 -1.8382179482160674  5.3064756328542213  1.5620566598423220
  1.8382159328750096  5.3064756328542213  1.5620566598423220
  5.5146498139660869  5.3064756328542213  1.5620566598423220
 -3.6764343904338594  8.4903603757898054  1.5620566598423220
 -0.0000005093427823  8.4903603757898054  1.5620566598423220
  3.6764333717482955  8.4903603757898054  1.5620566598423220
 -0.0000015059982764  2.1225908899186372  7.8102832992116111
  3.6764323750928005  2.1225908899186372  7.8102832992116111
  7.3528662561838782  2.1225908899186372  7.8102832992116111
 -1.8382179482160674  5.3064756328542213  7.8102832992116111
  1.8382159328750096  5.3064756328542213  7.8102832992116111
  5.5146498139660869  5.3064756328542213  7.8102832992116111
 -3.6764343904338594  8.4903603757898054  7.8102832992116111
 -0.0000005093427823  8.4903603757898054  7.8102832992116111
  3.6764333717482955  8.4903603757898054  7.8102832992116111
  1.8382189448715618  1.0612938530169473  4.6861699795269667
  5.5146528259626377  1.0612938530169473  4.6861699795269667
  9.1910867070537154  1.0612938530169473  4.6861699795269667
  0.0000025026537702  4.2451785959525319  4.6861699795269667
  3.6764363837448468  4.2451785959525319  4.6861699795269667
  7.3528702648359241  4.2451785959525319  4.6861699795269667
 -1.8382139395640216  7.4290633388881169  4.6861699795269667
  1.8382199415270548  7.4290633388881169  4.6861699795269667
  5.5146538226181328  7.4290633388881169  4.6861699795269667
  1.8382189448715618  1.0612938530169473 10.9343966188962547
  5.5146528259626377  1.0612938530169473 10.9343966188962547
  9.1910867070537154  1.0612938530169473 10.9343966188962547
  0.0000025026537702  4.2451785959525319 10.9343966188962547
  3.6764363837448468  4.2451785959525319 10.9343966188962547
  7.3528702648359241  4.2451785959525319 10.9343966188962547
 -1.8382139395640216  7.4290633388881169 10.9343966188962547
  1.8382199415270548  7.4290633388881169 10.9343966188962547
  5.5146538226181328  7.4290633388881169 10.9343966188962547
