K  S 
 1.0000000000000000
     4.5400552500000000   -0.0000000100000000    2.6212022299999989
     1.5133504000000000    4.2804053399999997    2.6212022299999989
     0.0000000000000000    0.0000000000000000    5.2424034500000003
 K   S  
   2   1
Cartesian
  4.5400542374999997  3.2103039974999996  7.8636059324999987
  1.5133514125000000  1.0701013324999999  2.6212019774999993
  0.0000000000000000  0.0000000000000000  0.0000000000000000
