Sr S 
 1.0000000000000000
    11.1845327224686972    0.0000000000000000    6.4573944683008939
     3.7281765675335232   10.5448779052555697    6.4573944683008939
     0.0000000301986813    0.0000000301986813   12.9147827458721238
 Sr  S  
  27  27
Cartesian
  0.0086602535381956 -0.0000000000000000  0.0050000008654169
  3.7281775741562329 -0.0000000000000000  2.1524648227669649
  7.4563551483124657 -0.0000000000000000  4.3049296455339299
  1.2427255225111744  3.5149593017518566  2.1524648227669645
  4.9709030966674073  3.5149593017518566  4.3049296455339299
  8.6990806708236388  3.5149593017518566  6.4573944683008939
  2.4854510450223488  7.0299186035037131  4.3049296455339290
  6.2136286191785821  7.0299186035037131  6.4573944683008948
  9.9418061933348145  7.0299186035037131  8.6098592910678597
  0.0000000100662271  0.0000000100662271  4.3049275819573740
  3.7281775842224598  0.0000000100662271  6.4573924047243390
  7.4563551583786918  0.0000000100662271  8.6098572274913039
  1.2427255325774018  3.5149593118180835  6.4573924047243390
  4.9709031067336333  3.5149593118180835  8.6098572274913039
  8.6990806808898675  3.5149593118180835 10.7623220502582697
  2.4854510550885758  7.0299186135699401  8.6098572274913039
  6.2136286292448091  7.0299186135699401 10.7623220502582697
  9.9418062034010397  7.0299186135699401 12.9147868730252320
  0.0000000201324542  0.0000000201324542  8.6098551639147480
  3.7281775942886872  0.0000000201324542 10.7623199866817139
  7.4563551684449196  0.0000000201324542 12.9147848094486779
  1.2427255426436288  3.5149593218843114 10.7623199866817139
  4.9709031167998603  3.5149593218843109 12.9147848094486779
  8.6990806909560945  3.5149593218843114 15.0672496322156420
  2.4854510651548036  7.0299186236361670 12.9147848094486779
  6.2136286393110360  7.0299186236361670 15.0672496322156437
  9.9418062134672667  7.0299186236361670 17.2197144549826078
  2.4854515533668176  1.7574796559090411  4.3049286137456519
  6.2136291275230491  1.7574796559090413  6.4573934365126169
  9.9418067016792833  1.7574796559090413  8.6098582592795800
  3.7281770758779929  5.2724389576608983  6.4573934365126169
  7.4563546500342239  5.2724389576608983  8.6098582592795818
 11.1845322241904572  5.2724389576608974 10.7623230820465459
  4.9709025983891673  8.7873982594127540  8.6098582592795818
  8.6990801725453970  8.7873982594127540 10.7623230820465459
 12.4272577467016312  8.7873982594127522 12.9147879048135135
  2.4854515634330450  1.7574796659752685  8.6098561957030277
  6.2136291375892752  1.7574796659752685 10.7623210184699900
  9.9418067117455102  1.7574796659752685 12.9147858412369558
  3.7281770859442203  5.2724389677271253 10.7623210184699918
  7.4563546601004536  5.2724389677271244 12.9147858412369558
 11.1845322342566842  5.2724389677271244 15.0672506640039217
  4.9709026084553933  8.7873982694789792 12.9147858412369558
  8.6990801826116240  8.7873982694789792 15.0672506640039199
 12.4272577567678582  8.7873982694789809 17.2197154867708875
  2.4854515734992719  1.7574796760414952 12.9147837776603982
  6.2136291476555039  1.7574796760414952 15.0672486004273658
  9.9418067218117354  1.7574796760414952 17.2197134231943316
  3.7281770960104472  5.2724389777933514 15.0672486004273658
  7.4563546701666787  5.2724389777933522 17.2197134231943281
 11.1845322443229112  5.2724389777933522 19.3721782459612939
  4.9709026185216203  8.7873982795452061 17.2197134231943281
  8.6990801926778509  8.7873982795452079 19.3721782459612939
 12.4272577668340851  8.7873982795452061 21.5246430687282562
