Sr S 
 1.0000000000000000
    11.1478618601425268    0.0000000000000000    6.4362225311794514
     3.7159529500585595   10.5103042868930370    6.4362225311794514
     0.0000000300996685    0.0000000300996685   12.8724388919268584
 Sr  S  
  27  27
Cartesian
  0.0000000000000000  0.0000000000000000  0.0000000000000000
  3.7159539533808421  0.0000000000000000  2.1454075103931505
  7.4319079067616842  0.0000000000000000  4.2908150207863009
  1.2386509833528532  3.5034347622976787  2.1454075103931505
  4.9546049367336948  3.5034347622976787  4.2908150207863009
  8.6705588901145365  3.5034347622976787  6.4362225311794514
  2.4773019667057063  7.0068695245953574  4.2908150207863009
  6.1932559200865480  7.0068695245953574  6.4362225311794514
  9.9092098734673897  7.0068695245953574  8.5816300415726019
  0.0000000100332228  0.0000000100332228  4.2908129639756192
  3.7159539634140648  0.0000000100332228  6.4362204743687697
  7.4319079167949074  0.0000000100332228  8.5816279847619210
  1.2386509933860761  3.5034347723309014  6.4362204743687697
  4.9546049467669180  3.5034347723309014  8.5816279847619210
  8.6705589001477588  3.5034347723309014 10.7270354951550715
  2.4773019767389290  7.0068695346285805  8.5816279847619210
  6.1932559301197712  7.0068695346285805 10.7270354951550715
  9.9092098835006119  7.0068695346285805 12.8724430055482220
  0.0000000200664457  0.0000000200664457  8.5816259279512384
  3.7159539734472880  0.0000000200664457 10.7270334383443888
  7.4319079268281296  0.0000000200664457 12.8724409487375393
  1.2386510034192988  3.5034347823641245 10.7270334383443888
  4.9546049568001402  3.5034347823641245 12.8724409487375393
  8.6705589101809828  3.5034347823641245 15.0178484591306898
  2.4773019867721522  7.0068695446618028 12.8724409487375393
  6.1932559401529934  7.0068695446618028 15.0178484591306898
  9.9092098935338360  7.0068695446618028 17.1632559695238420
  2.4773024733834603  1.7517173861654505  4.2908139923809605
  6.1932564267643020  1.7517173861654505  6.4362215027741110
  9.9092103801451437  1.7517173861654505  8.5816290131672623
  3.7159534567363135  5.2551521484631296  6.4362215027741110
  7.4319074101171552  5.2551521484631296  8.5816290131672623
 11.1478613634979968  5.2551521484631296 10.7270365235604110
  4.9546044400891658  8.7585869107608083  8.5816290131672606
  8.6705583934700083  8.7585869107608083 10.7270365235604110
 12.3865123468508500  8.7585869107608083 12.8724440339535615
  2.4773024834166830  1.7517173961986734  8.5816269563565797
  6.1932564367975251  1.7517173961986734 10.7270344667497319
  9.9092103901783659  1.7517173961986734 12.8724419771428806
  3.7159534667695362  5.2551521584963528 10.7270344667497319
  7.4319074201503783  5.2551521584963528 12.8724419771428806
 11.1478613735312191  5.2551521584963528 15.0178494875360311
  4.9546044501223889  8.7585869207940306 12.8724419771428806
  8.6705584035032306  8.7585869207940306 15.0178494875360311
 12.3865123568840723  8.7585869207940306 17.1632569979291816
  2.4773024934499057  1.7517174062318963 12.8724399203321980
  6.1932564468307483  1.7517174062318963 15.0178474307253502
  9.9092104002115899  1.7517174062318963 17.1632549411184989
  3.7159534768027589  5.2551521685295759 15.0178474307253502
  7.4319074301836014  5.2551521685295759 17.1632549411184989
 11.1478613835644431  5.2551521685295759 19.3086624515116512
  4.9546044601556121  8.7585869308272546 17.1632549411184989
  8.6705584135364546  8.7585869308272546 19.3086624515116512
 12.3865123669172963  8.7585869308272546 21.4540699619047999
