Na
 1.0000000000000000
    11.1396019769003036    0.0000000000000000    0.0000000000000000
    -5.5697994785160869    9.6471771079702222    0.0000000000000000
     0.0000000000000000    0.0000000000000000   12.6214261020760059
 Na 
  36
Cartesian
 -0.0000015210592586  2.1438182070130614  1.5776782627595007
  3.7131991379075084  2.1438182070130614  1.5776782627595007
  7.4263997968742776  2.1438182070130614  1.5776782627595007
 -1.8566013472312870  5.3595439096698012  1.5776782627595007
  1.8565993117354802  5.3595439096698012  1.5776782627595007
  5.5697999707022490  5.3595439096698012  1.5776782627595007
 -3.7132011734033163  8.5752696123265419  1.5776782627595007
 -0.0000005144365490  8.5752696123265419  1.5776782627595007
  3.7132001445302198  8.5752696123265419  1.5776782627595007
 -0.0000015210592586  2.1438182070130614  7.8883913137975039
  3.7131991379075084  2.1438182070130614  7.8883913137975039
  7.4263997968742776  2.1438182070130614  7.8883913137975039
 -1.8566013472312870  5.3595439096698012  7.8883913137975039
  1.8565993117354802  5.3595439096698012  7.8883913137975039
  5.5697999707022490  5.3595439096698012  7.8883913137975039
 -3.7132011734033163  8.5752696123265419  7.8883913137975039
 -0.0000005144365490  8.5752696123265419  7.8883913137975039
  3.7132001445302198  8.5752696123265419  7.8883913137975039
  1.8566023538539969  1.0719074956436796  4.7330347882785020
  5.5698030128207643  1.0719074956436796  4.7330347882785020
  9.2830036717875331  1.0719074956436796  4.7330347882785020
  0.0000025276819679  4.2876331983004201  4.7330347882785020
  3.7132031866487352  4.2876331983004201  4.7330347882785020
  7.4264038456155044  4.2876331983004201  4.7330347882785020
 -1.8565972984900614  7.5033589009571608  4.7330347882785020
  1.8566033604767060  7.5033589009571608  4.7330347882785020
  5.5698040194434748  7.5033589009571608  4.7330347882785020
  1.8566023538539969  1.0719074956436796 11.0437478393165058
  5.5698030128207643  1.0719074956436796 11.0437478393165058
  9.2830036717875331  1.0719074956436796 11.0437478393165058
  0.0000025276819679  4.2876331983004201 11.0437478393165058
  3.7132031866487352  4.2876331983004201 11.0437478393165058
  7.4264038456155044  4.2876331983004201 11.0437478393165058
 -1.8565972984900614  7.5033589009571608 11.0437478393165058
  1.8566033604767060  7.5033589009571608 11.0437478393165058
  5.5698040194434748  7.5033589009571608 11.0437478393165058
