Na
 1.0000000000000000
    11.0293016432732305    0.0000000000000000    0.0000000000000000
    -5.5146493266533749    9.5516542288067541    0.0000000000000000
     0.0000000000000000    0.0000000000000000   12.4964532787385778
 Na 
  36
Cartesian
  0.0066157288444560  2.1225908899186372  1.5695541396212962
  3.6764323750928010  2.1225908899186372  1.5620566598423218
  7.3528662561838782  2.1225908899186372  1.5620566598423218
 -1.8382179482160677  5.3064756328542213  1.5620566598423218
  1.8382159328750096  5.3064756328542213  1.5620566598423218
  5.5146498139660869  5.3064756328542213  1.5620566598423218
 -3.6764343904338594  8.4903603757898054  1.5620566598423218
 -0.0000005093427826  8.4903603757898054  1.5620566598423218
  3.6764333717482960  8.4903603757898054  1.5620566598423218
 -0.0000015059982765  2.1225908899186372  7.8102832992116111
  3.6764323750928010  2.1225908899186372  7.8102832992116111
  7.3528662561838782  2.1225908899186372  7.8102832992116111
 -1.8382179482160677  5.3064756328542213  7.8102832992116111
  1.8382159328750096  5.3064756328542213  7.8102832992116111
  5.5146498139660869  5.3064756328542213  7.8102832992116111
 -3.6764343904338594  8.4903603757898054  7.8102832992116111
 -0.0000005093427826  8.4903603757898054  7.8102832992116111
  3.6764333717482960  8.4903603757898054  7.8102832992116111
  1.8382189448715613  1.0612938530169473  4.6861699795269667
  5.5146528259626377  1.0612938530169473  4.6861699795269667
  9.1910867070537137  1.0612938530169473  4.6861699795269667
  0.0000025026537698  4.2451785959525319  4.6861699795269667
  3.6764363837448459  4.2451785959525319  4.6861699795269667
  7.3528702648359223  4.2451785959525319  4.6861699795269667
 -1.8382139395640220  7.4290633388881169  4.6861699795269667
  1.8382199415270539  7.4290633388881169  4.6861699795269667
  5.5146538226181310  7.4290633388881169  4.6861699795269667
  1.8382189448715613  1.0612938530169473 10.9343966188962547
  5.5146528259626377  1.0612938530169473 10.9343966188962547
  9.1910867070537137  1.0612938530169473 10.9343966188962547
  0.0000025026537698  4.2451785959525319 10.9343966188962547
  3.6764363837448459  4.2451785959525319 10.9343966188962547
  7.3528702648359223  4.2451785959525319 10.9343966188962547
 -1.8382139395640220  7.4290633388881169 10.9343966188962547
  1.8382199415270539  7.4290633388881169 10.9343966188962547
  5.5146538226181310  7.4290633388881169 10.9343966188962547
