K  S 
 1.0000000000000000
    13.7103681519228502   -0.0000000301986813    7.9156850732028285
     4.5701186404856422   12.9262596640991276    7.9156850732028285
     0.0000000000000000    0.0000000000000000   15.8313670963388553
 K   S  
  54  27
Cartesian
  4.5701216981021222  3.2315649084751117  7.9156843106861272
  9.1402444154097395  3.2315648984088843 10.5542460017537358
 13.7103671327173551  3.2315648883426573 13.1928076928213471
  6.0934945782640026  7.5403181298414861 10.5542460017537358
 10.6636172955716191  7.5403181197752591 13.1928076928213471
 15.2337400128792382  7.5403181097090322 15.8313693838889549
  7.6168674584258822 11.8490713512078631 13.1928076928213471
 12.1869901757335022 11.8490713411416362 15.8313693838889549
 16.7571128930411177 11.8490713310754092 18.4699310749565662
  4.5701216981021222  3.2315649084751117 13.1928066761324114
  9.1402444154097395  3.2315648984088843 15.8313683672000209
 13.7103671327173551  3.2315648883426573 18.4699300582676287
  6.0934945782640026  7.5403181298414861 15.8313683672000209
 10.6636172955716191  7.5403181197752591 18.4699300582676287
 15.2337400128792382  7.5403181097090322 21.1084917493352400
  7.6168674584258822 11.8490713512078631 18.4699300582676287
 12.1869901757335022 11.8490713411416362 21.1084917493352400
 16.7571128930411177 11.8490713310754092 23.7470534404028477
  4.5701216981021222  3.2315649084751117 18.4699290415786983
  9.1402444154097395  3.2315648984088843 21.1084907326463060
 13.7103671327173551  3.2315648883426573 23.7470524237139173
  6.0934945782640026  7.5403181298414861 21.1084907326463060
 10.6636172955716191  7.5403181197752591 23.7470524237139173
 15.2337400128792382  7.5403181097090322 26.3856141147815251
  7.6168674584258822 11.8490713512078631 23.7470524237139173
 12.1869901757335022 11.8490713411416362 26.3856141147815251
 16.7571128930411177 11.8490713310754092 29.0241758058491364
  1.5233738993673749  1.0771883028250373  2.6385614368953751
  6.0934966166749902  1.0771882927588101  5.2771231279629838
 10.6636193339826075  1.0771882826925832  7.9156848190305942
  3.0467467795292551  5.3859415241914128  5.2771231279629847
  7.6168694968368698  5.3859415141251858  7.9156848190305924
 12.1869922141444906  5.3859415040589580 10.5542465100982028
  4.5701196596911355  9.6946947455577881  7.9156848190305942
  9.1402423769987529  9.6946947354915611 10.5542465100982028
 13.7103650943063666  9.6946947254253342 13.1928082011658105
  1.5233738993673749  1.0771883028250373  7.9156838023416602
  6.0934966166749902  1.0771882927588101 10.5542454934092689
 10.6636193339826075  1.0771882826925832 13.1928071844768784
  3.0467467795292551  5.3859415241914128 10.5542454934092689
  7.6168694968368698  5.3859415141251858 13.1928071844768766
 12.1869922141444906  5.3859415040589580 15.8313688755444879
  4.5701196596911355  9.6946947455577881 13.1928071844768784
  9.1402423769987529  9.6946947354915611 15.8313688755444879
 13.7103650943063666  9.6946947254253342 18.4699305666120956
  1.5233738993673749  1.0771883028250373 13.1928061677879462
  6.0934966166749902  1.0771882927588101 15.8313678588555558
 10.6636193339826075  1.0771882826925832 18.4699295499231653
  3.0467467795292551  5.3859415241914128 15.8313678588555558
  7.6168694968368698  5.3859415141251858 18.4699295499231653
 12.1869922141444906  5.3859415040589580 21.1084912409907730
  4.5701196596911355  9.6946947455577881 18.4699295499231653
  9.1402423769987529  9.6946947354915611 21.1084912409907730
 13.7103650943063666  9.6946947254253342 23.7470529320583843
  0.0086602539475839 -0.0000000000190752  0.0050000001563358
  4.5701227173076164 -0.0000000100662271  2.6385616910676095
  9.1402454346152329 -0.0000000201324542  5.2771233821352190
  1.5233728801618807  4.3087532213663753  2.6385616910676091
  6.0934955974694969  4.3087532113001483  5.2771233821352199
 10.6636183147771160  4.3087532012339214  7.9156850732028294
  3.0467457603237613  8.6175064427327506  5.2771233821352181
  7.6168684776313773  8.6175064326665236  7.9156850732028277
 12.1869911949389937  8.6175064226002966 10.5542467642704398
  0.0000000000000000  0.0000000000000000  5.2771223654462851
  4.5701227173076164 -0.0000000100662271  7.9156840565138946
  9.1402454346152329 -0.0000000201324542 10.5542457475815041
  1.5233728801618807  4.3087532213663753  7.9156840565138937
  6.0934955974694969  4.3087532113001483 10.5542457475815041
 10.6636183147771160  4.3087532012339214 13.1928074386491154
  3.0467457603237613  8.6175064427327506 10.5542457475815024
  7.6168684776313773  8.6175064326665236 13.1928074386491136
 12.1869911949389937  8.6175064226002966 15.8313691297167249
  0.0000000000000000  0.0000000000000000 10.5542447308925702
  4.5701227173076164 -0.0000000100662271 13.1928064219601797
  9.1402454346152329 -0.0000000201324542 15.8313681130277892
  1.5233728801618807  4.3087532213663753 13.1928064219601779
  6.0934955974694969  4.3087532113001483 15.8313681130277910
 10.6636183147771160  4.3087532012339214 18.4699298040953970
  3.0467457603237613  8.6175064427327506 15.8313681130277875
  7.6168684776313773  8.6175064326665236 18.4699298040953970
 12.1869911949389937  8.6175064226002966 21.1084914951630083
